(set-logic QF_SLIA)
(declare-fun var0 () String)
(assert (str.in_re var0 (re.++ ((_ re.loop 13 923) (re.++ (re.union (str.to_re "FRU") (re.union (str.to_re "imX") (re.union (str.to_re "+") (str.to_re ".7-")))) (re.++ (re.union (str.to_re "]") (re.union (str.to_re "gPM") (re.union (str.to_re "N") (str.to_re "roE")))) (re.++ (re.union (str.to_re "^F") (re.union (str.to_re ")No") (re.union (str.to_re "A") (str.to_re "i\\b")))) (re.union (str.to_re "2Q") (re.union (str.to_re "n") (re.union (str.to_re "1@H") (str.to_re "V")))))))) (re.++ ((_ re.loop 4 442) (re.++ (re.union (str.to_re "a:|") (re.union (str.to_re ":E") (re.union (str.to_re "@,") (str.to_re ":'")))) (re.++ (re.union (str.to_re "2") (re.union (str.to_re "J,-") (re.union (str.to_re "fM") (str.to_re "a`")))) (re.++ (re.union (str.to_re "jjZ") (re.union (str.to_re "x") (re.union (str.to_re "&i") (str.to_re "O^S")))) (re.union (str.to_re "&") (re.union (str.to_re "t'J") (re.union (str.to_re "I") (str.to_re "~A)")))))))) (re.++ ((_ re.loop 10 915) (re.++ (re.union (str.to_re "R&") (re.union (str.to_re "+E") (re.union (str.to_re "Y") (str.to_re "*%")))) (re.++ (re.union (str.to_re "p") (re.union (str.to_re "#b") (re.union (str.to_re "~Q(") (str.to_re "U")))) (re.++ (re.union (str.to_re "aDh") (re.union (str.to_re "x") (re.union (str.to_re "b") (str.to_re "dF@")))) (re.union (str.to_re "%[2") (re.union (str.to_re "_ma") (re.union (str.to_re "W`") (str.to_re "/")))))))) ((_ re.loop 13 499) (re.++ (re.union (str.to_re "N") (re.union (str.to_re "mk") (re.union (str.to_re "Mr") (str.to_re "tg")))) (re.++ (re.union (str.to_re "g") (re.union (str.to_re "o") (re.union (str.to_re "g") (str.to_re "8")))) (re.++ (re.union (str.to_re "o)") (re.union (str.to_re "K$K") (re.union (str.to_re "qHU") (str.to_re "v")))) (re.union (str.to_re "CYN") (re.union (str.to_re "R/d") (re.union (str.to_re "h5k") (str.to_re "rEa")))))))))))))
(assert (not (str.in_re var0 (re.++ ((_ re.loop 9 948) (re.++ (re.union (str.to_re "T|") (re.union (str.to_re ",<#") (re.union (str.to_re "!\\") (str.to_re "KS")))) (re.++ (re.union (str.to_re "WG") (re.union (str.to_re "G") (re.union (str.to_re "aL") (str.to_re "9")))) (re.++ (re.union (str.to_re "u") (re.union (str.to_re "\u0022") (re.union (str.to_re "/") (str.to_re "8")))) (re.union (str.to_re "PM") (re.union (str.to_re "-^") (re.union (str.to_re "#Tc") (str.to_re "WKQ")))))))) (re.++ ((_ re.loop 20 398) (re.++ (re.union (str.to_re "r") (re.union (str.to_re "u") (re.union (str.to_re "a^") (str.to_re "-P")))) (re.++ (re.union (str.to_re "V.W") (re.union (str.to_re "Fm") (re.union (str.to_re "h") (str.to_re "YBu")))) (re.++ (re.union (str.to_re "ch=") (re.union (str.to_re "qR") (re.union (str.to_re ".YQ") (str.to_re "^")))) (re.union (str.to_re "]X") (re.union (str.to_re "\u0022") (re.union (str.to_re "@wj") (str.to_re "/yZ")))))))) (re.++ ((_ re.loop 8 927) (re.++ (re.union (str.to_re "A") (re.union (str.to_re "9&") (re.union (str.to_re "A\u0022") (str.to_re "gJ~")))) (re.++ (re.union (str.to_re "J?*") (re.union (str.to_re ":") (re.union (str.to_re "~1\\") (str.to_re "aT")))) (re.++ (re.union (str.to_re "\\") (re.union (str.to_re "a#") (re.union (str.to_re "*") (str.to_re "]")))) (re.union (str.to_re "}Lg") (re.union (str.to_re "T:") (re.union (str.to_re "8S") (str.to_re ",(u")))))))) ((_ re.loop 1 574) (re.++ (re.union (str.to_re "..") (re.union (str.to_re "Wlv") (re.union (str.to_re "&.") (str.to_re "f`")))) (re.++ (re.union (str.to_re "Bu$") (re.union (str.to_re "|9") (re.union (str.to_re "I[Z") (str.to_re "RtE")))) (re.++ (re.union (str.to_re "d") (re.union (str.to_re "|Y@") (re.union (str.to_re "0") (str.to_re "\u0022v")))) (re.union (str.to_re "@L!") (re.union (str.to_re "Na") (re.union (str.to_re "ez") (str.to_re "!b"))))))))))))))
(assert (not (str.in_re var0 (re.++ (re.* re.allchar) (re.++ (re.union (str.to_re "<") (re.union (str.to_re ">") (re.union (str.to_re "'") (re.union (str.to_re "\u0022") (str.to_re "&"))))) (re.* re.allchar))))))
(assert (<= 50 (str.len var0)))
(check-sat)
(get-model)
